[ti. 04. april 15:01:03 +0200 2023]  ./input/alternate_g_np/50-6-3.gcc
Set parameter Username
Academic license - for non-commercial use only - expires 2024-03-28
Set parameter TimeLimit to value 1800
Set parameter PreCrush to value 1
Set parameter LazyConstraints to value 1
Gurobi Optimizer version 10.0.1 build v10.0.1rc0 (linux64)

CPU model: AMD Ryzen 9 5950X 16-Core Processor, instruction set [SSE2|AVX|AVX2]
Thread count: 16 physical cores, 32 logical processors, using up to 32 threads

Optimize a model with 54 rows, 250 columns and 650 nonzeros
Model fingerprint: 0x8c4dc412
Variable types: 0 continuous, 250 integer (250 binary)
Coefficient statistics:
  Matrix range     [1e+00, 1e+00]
  Objective range  [1e+00, 1e+02]
  Bounds range     [1e+00, 1e+00]
  RHS range        [1e+00, 1e+00]
Presolve time: 0.00s
Presolved: 54 rows, 250 columns, 650 nonzeros
Variable types: 0 continuous, 250 integer (250 binary)

Root relaxation: objective 2.421000e+03, 4 iterations, 0.00 seconds (0.00 work units)

    Nodes    |    Current Node    |     Objective Bounds      |     Work
 Expl Unexpl |  Obj  Depth IntInf | Incumbent    BestBd   Gap | It/Node Time

     0     0 2421.00000    0    4          - 2421.00000      -     -    0s
     0     0 2421.00000    0    4          - 2421.00000      -     -    0s
     0     0 2421.00000    0    -          - 2421.00000      -     -    0s
     0     0 2421.00000    0    7          - 2421.00000      -     -    0s
     0     0 2421.00000    0    -          - 2421.00000      -     -    0s
     0     0 2421.00000    0   13          - 2421.00000      -     -    0s
     0     0 2421.00000    0    7          - 2421.00000      -     -    0s
     0     2 2421.00000    0    4          - 2421.00000      -     -    0s
 29083 14126 2421.00000   40    -          - 2421.00000      -   8.4    5s
 53157 30485 2131.00000   65    -          - 2421.00000      -  12.4   10s
 71308 43128 2396.95127   45   79          - 2421.00000      -  14.7   15s
*82310 47346              21    2421.0000000 2421.00000  0.00%  16.1   18s

Cutting planes:
  User: 29
  Gomory: 1
  Flow cover: 1
  Lazy constraints: 17

Explored 82310 nodes (1327253 simplex iterations) in 18.30 seconds (7.79 work units)
Thread count was 32 (of 32 available processors)

Solution count 1: 2421 

Optimal solution found (tolerance 1.00e-04)
Best objective 2.421000000000e+03, best bound 2.421000000000e+03, gap 0.0000%

User-callback calls 169457, time in user-callback 7.47 sec
Minimal separator inequalities added: 83409
Indegree inequalities added: 367795
Passed solution check
[ti. 04. april 15:01:22 +0200 2023]  done

